
--- Job bchfcnet.gms Start 02/08/22 12:29:31 34.3.0 rac355f3 WEX-WEI x86 64bit/MS Windows
--- Applying:
    C:\GAMS\34\gmsprmNT.txt
--- GAMS Parameters defined
    Input C:\Users\dekhi\Desktop\gamsworld\FCNetLib\test\bchfcnet.gms
    PageSize 0
    ScrDir C:\Users\dekhi\Desktop\gamsworld\FCNetLib\test\225a\
    SysDir C:\GAMS\34\
    LogOption 3
    ErrMsg 1
    ErrorLog 99
    IDE 1
    ResLim 3600
    LstTitleLeftAligned 1
Licensee: Eval License                                   S211214|0002AW-GEN
          Ostfalia Hochschule fuer angewandte Wissenschaften        DCE1645
          C:\Users\dekhi\Documents\GAMS\gamslice.txt
          License Admin: Mohamed Ali Dekhil, dekhil.medali@gmail.com       
          Evaluation license: Not for commercial or production use
GAMS 34.3.0   Copyright (C) 1987-2021 GAMS Development. All rights reserved
--- Starting compilation
--- bchfcnet.gms(34) 2 Mb
--- . decl.gms(15) 2 Mb
--- bchfcnet.gms(38) 2 Mb
--- . g200x740f.inc(1705) 3 Mb
--- bchfcnet.gms(67) 3 Mb
--- . equs.gms(20) 3 Mb
--- bchfcnet.gms(97) 3 Mb
--- call rm -f bchout_i.gdx startcut.txt startheur.txt cuthist.gdx agap.txt rgap.txt cntfail.txt
--- bchfcnet.gms(118) 3 Mb
--- Starting execution: elapsed 0:00:00.080
--- bchfcnet.gms(1763) 4 Mb
--- GDX File (execute_unload) C:\Users\dekhi\Desktop\gamsworld\FCNetLib\test\net.gdx
--- bchfcnet.gms(1854) 4 Mb
--- GDXin=C:\Users\dekhi\Desktop\gamsworld\FCNetLib\test\points\g200x740f.gdx
--- GDX File (execute_load) C:\Users\dekhi\Desktop\gamsworld\FCNetLib\test\points\g200x740f.gdx
--- Generating MIP model master
--- bchfcnet.gms(1858) 5 Mb
---   941 rows  1,481 columns  4,441 non-zeroes
---   740 discrete-columns
--- Executing CPLEX (Solvelink=2): elapsed 0:00:00.125

IBM ILOG CPLEX   34.3.0 rac355f3 Released Feb 25, 2021 WEI x86 64bit/MS Window

--- GAMS/Cplex Link licensed for continuous and discrete problems.

Reading parameter(s) from "C:\Users\dekhi\Desktop\gamsworld\FCNetLib\test\cplex.op2"
>>  mipstart 1
Finished reading from "C:\Users\dekhi\Desktop\gamsworld\FCNetLib\test\cplex.op2"

--- Space for names approximately 0.05 Mb
--- Use option 'names no' to turn use of names off
--- GMO memory 0.78 Mb (peak 0.79 Mb)
--- Dictionary memory 0.00 Mb
--- Cplex 20.1.0.0 link memory 0.04 Mb (peak 0.16 Mb)
--- Starting Cplex

Version identifier: 20.1.0.0 | 2020-11-10 | 9bedb6d68
CPXPARAM_Threads                                 1
CPXPARAM_MIP_Display                             4
CPXPARAM_TimeLimit                               3600
CPXPARAM_MIP_Tolerances_AbsMIPGap                0
CPXPARAM_MIP_Tolerances_MIPGap                   0
Generic callback                                 0x50
Processing 1 MIP starts.
MIP start 'm1' defined solution with objective 617872.0000.
1 of 1 MIP starts provided solutions.
MIP start 'm1' defined initial solution with objective 617872.0000.
Tried aggregator 2 times.
MIP Presolve eliminated 200 rows and 3 columns.
MIP Presolve added 397 rows and 0 columns.
Aggregator did 1 substitutions.
Reduced MIP has 1136 rows, 1477 columns, and 3351 nonzeros.
Reduced MIP has 739 binaries, 0 generals, 0 SOSs, and 0 indicators.
Presolve time = 0.02 sec. (7.62 ticks)
Probing fixed 0 vars, tightened 5 bounds.
Probing time = 0.00 sec. (0.20 ticks)
Tried aggregator 1 time.
Detecting symmetries...
MIP Presolve modified 11 coefficients.
Reduced MIP has 1136 rows, 1477 columns, and 3351 nonzeros.
Reduced MIP has 739 binaries, 0 generals, 0 SOSs, and 0 indicators.
Presolve time = 0.00 sec. (5.86 ticks)
Probing time = 0.00 sec. (0.20 ticks)
Clique table members: 6.
MIP emphasis: balance optimality and feasibility.
MIP search method: dynamic search.
Parallel mode: none, using 1 thread.
Tried aggregator 1 time.
LP Presolve eliminated 540 rows and 541 columns.
Aggregator did 199 substitutions.
Reduced LP has 397 rows, 737 columns, and 1870 nonzeros.
Presolve time = 0.00 sec. (0.86 ticks)

Iteration log . . .
Iteration:     1   Dual objective     =         90383.244000
Iteration:    62   Dual objective     =        392195.080300
Iteration:   124   Dual objective     =        503361.803400
Iteration:   191   Dual objective     =        569468.305900
Initializing dual steep norms . . .
Root relaxation solution time = 0.00 sec. (3.86 ticks)

        Nodes                                         Cuts/
   Node  Left     Objective  IInf  Best Integer    Best Bound    ItCnt     Gap

*     0+    0                       617872.0000    90000.0000            85.43%
Found incumbent of value 617872.000000 after 0.02 sec. (20.05 ticks)
      0     0   572132.2166   199   617872.0000   572132.2166      209    7.40%
      0     0   608682.0248   270   617872.0000     Cuts: 384      608    1.49%
      0     0   613660.8943   244   617872.0000     Cuts: 384      788    0.68%
      0     0   615473.7468   167   617872.0000     Cuts: 299      907    0.39%
      0     0   616311.5322   147   617872.0000     Cuts: 155      994    0.25%
      0     0   616996.9329   119   617872.0000     Cuts: 126     1068    0.14%
Detecting symmetries...
      0     0   617353.5605   121   617872.0000     Cuts: 113     1160    0.08%
      0     0   617530.7293    91   617872.0000      Cuts: 69     1232    0.06%
      0     0   617601.1481    76   617872.0000      Cuts: 52     1274    0.04%
      0     0   617726.3854    64   617872.0000      Cuts: 43     1304    0.02%
      0     0   617798.0228    71   617872.0000      Cuts: 40     1343    0.01%
      0     0   617848.7356    23   617872.0000      Cuts: 31     1373    0.00%
      0     0   617849.4167    23   617872.0000   Flowcuts: 1     1374    0.00%
Detecting symmetries...
      0     2   617849.4167    23   617872.0000   617849.4246     1374    0.00%
Elapsed time = 0.31 sec. (298.59 ticks, tree = 0.01 MB, solutions = 1)

Cover cuts applied:  162
Implied bound cuts applied:  9
Flow cuts applied:  358
Mixed integer rounding cuts applied:  54
Flow path cuts applied:  44
Multi commodity flow cuts applied:  1
Lift and project cuts applied:  5
Gomory fractional cuts applied:  83

Root node processing (before b&c):
  Real time             =    0.31 sec. (298.59 ticks)
Sequential b&c:
  Real time             =    0.01 sec. (12.47 ticks)
                          ------------
Total (root+branch&cut) =    0.33 sec. (311.06 ticks)

--- MIP status (101): integer optimal solution.
--- Cplex Time: 0.33sec (det. 311.07 ticks)

--- Fixing integer variables and solving final LP...

Version identifier: 20.1.0.0 | 2020-11-10 | 9bedb6d68
CPXPARAM_Advance                                 2
CPXPARAM_Threads                                 1
CPXPARAM_MIP_Display                             4
CPXPARAM_TimeLimit                               3600
CPXPARAM_MIP_Tolerances_AbsMIPGap                0
CPXPARAM_MIP_Tolerances_MIPGap                   0
Tried aggregator 1 time.
LP Presolve eliminated 940 rows and 1481 columns.
All rows and columns eliminated.
Presolve time = 0.00 sec. (0.56 ticks)

--- Fixed MIP status (1): optimal.
--- Cplex Time: 0.00sec (det. 0.96 ticks)


Proven optimal solution
MIP Solution:       617872.000000    (1416 iterations, 14 nodes)
Final Solve:        617872.000000    (0 iterations)

Best possible:      617872.000000
Absolute gap:            0.000000
Relative gap:            0.000000

--- Reading solution for model master
*** Status: Normal completion
--- Job bchfcnet.gms Stop 02/08/22 12:29:31 elapsed 0:00:00.496
